PARAMETER_FILE = even/LKH_uncomplete_graph/x5/de/par/random196.par
PROBLEM_FILE = even/LKH_uncomplete_graph/x5/de/mat/random196.tsp
Successes/Runs = 0/10
Cost.min = 1043, Cost.avg = 1043.00, Cost.max = 1043
Gap.min = 0.0000%, Gap.avg = 0.0000%, Gap.max = 0.0000%
Trials.min = 1000, Trials.avg = 1000.0, Trials.max = 1000
Time.min = 0.83 sec., Time.avg = 1.04 sec., Time.max = 1.37 sec.
Time.total = 10.49 sec.
请按任意键继续. . . 
